NAME: test4
TYPE: TSP
DIMENSION: 10
EDGE_WEIGHT_TYPE: EUC_2D
NODE_COORD_SECTION
1 37.4834184580071 83.59678800325482
2 69.32194442011307 61.02373321732014
3 0.2901030168709906 56.451897947453844
4 36.92290622594858 99.73891432208869
5 5.867932558011257 25.472413644588077
6 78.9336085024112 1.4377857027324525
7 34.976921269998186 8.904506720249383
8 70.25237197137582 93.8982600545954
9 49.12290772658786 97.34593993676923
10 97.28723298688061 49.14815298314197
EOF
